Problem:    percorso
Rows:       18
Columns:    23
Non-zeros:  69
Status:     OPTIMAL
Objective:  z = 14 (MINimum)

   No.   Row name   St   Activity     Lower bound   Upper bound    Marginal
------ ------------ -- ------------- ------------- ------------- -------------
     1 Start        NS             1             1             =            10 
     2 Goal         NS             1             1             =             4 
     3 Flux[1]      NS             0            -0             =           -11 
     4 Flux[2]      NS             0            -0             =            -9 
     5 Flux[3]      NS             0            -0             =            -9 
     6 Flux[4]      NS             0            -0             =            -6 
     7 Flux[5]      NS             0            -0             =            -8 
     8 Flux[6]      NS             0            -0             =            -7 
     9 Flux[7]      NS             0            -0             =            -5 
    10 Flux[8]      NS             0            -0             =            -3 
    11 Flux[9]      NS             0            -0             =            -4 
    12 Flux[10]     NS             0            -0             =            -2 
    13 Flux[11]     NS             0            -0             =            -2 
    14 Flux[12]     NS             0            -0             =            -1 
    15 Flux[13]     NS             0            -0             =             1 
    16 Flux[14]     B              0            -0             = 
    17 Flux[16]     B              0            -0             = 
    18 z            B             14                             

   No. Column name  St   Activity     Lower bound   Upper bound    Marginal
------ ------------ -- ------------- ------------- ------------- -------------
     1 x[1]         NL             0             0             1             3 
     2 x[2]         B              1             0             1 
     3 x[22]        B              0             0             1 
     4 x[23]        B              1             0             1 
     5 x[3]         B              0             0             1 
     6 x[4]         NL             0             0             1             2 
     7 x[5]         B              0             0             1 
     8 x[6]         NL             0             0             1             1 
     9 x[7]         B              1             0             1 
    10 x[8]         NL             0             0             1             5 
    11 x[9]         NL             0             0             1         < eps
    12 x[10]        B              0             0             1 
    13 x[11]        B              0             0             1 
    14 x[12]        B              1             0             1 
    15 x[13]        B              1             0             1 
    16 x[14]        NL             0             0             1             3 
    17 x[15]        B              1             0             1 
    18 x[16]        B              0             0             1 
    19 x[17]        B              0             0             1 
    20 x[18]        NL             0             0             1         < eps
    21 x[19]        B              1             0             1 
    22 x[20]        B              0             0             1 
    23 x[21]        NL             0             0             1             4 

Karush-Kuhn-Tucker optimality conditions:

KKT.PE: max.abs.err = 0.00e+00 on row 0
        max.rel.err = 0.00e+00 on row 0
        High quality

KKT.PB: max.abs.err = 0.00e+00 on row 0
        max.rel.err = 0.00e+00 on row 0
        High quality

KKT.DE: max.abs.err = 0.00e+00 on column 0
        max.rel.err = 0.00e+00 on column 0
        High quality

KKT.DB: max.abs.err = 0.00e+00 on row 0
        max.rel.err = 0.00e+00 on row 0
        High quality

End of output
